g3 0 1 0	# problem WFG8
 8 0 3 0 0	# vars, constraints, objectives, ranges, eqns
 0 3	# nonlinear constraints, objectives
 0 0	# network constraints: nonlinear, linear
 0 8 0	# nonlinear vars in constraints, objectives, both
 0 0 0 1	# linear network variables; functions; arith, flags
 0 0 0 0 0	# discrete variables: binary, integer, nonlinear (b,c,o)
 0 24	# nonzeros in Jacobian, gradients
 0 0	# max name lengths: constraints, variables
 0 0 34 0 3	# common exprs: b,c,o,c1,o1
V8 1 0
0 0.5
n0
V9 1 0
1 0.25
n0
V10 1 0
2 0.16666666666666666
n0
V11 1 0
3 0.125
n0
V12 1 0
4 0.1
n0
V13 1 0
5 0.08333333333333333
n0
V14 1 0
6 0.07142857142857142
n0
V15 1 0
7 0.0625
n0
V16 0 0
o54
4
o2
n0.25
v11
o2
n0.25
v10
o2
n0.25
v9
o2
n0.25
v8
V17 0 0
o54
5
o2
n0.2
v12
o2
n0.2
v11
o2
n0.2
v10
o2
n0.2
v9
o2
n0.2
v8
V18 0 0
o54
6
o2
n0.16666666666666666
v13
o2
n0.16666666666666666
v12
o2
n0.16666666666666666
v11
o2
n0.16666666666666666
v10
o2
n0.16666666666666666
v9
o2
n0.16666666666666666
v8
V19 0 0
o54
7
o2
n0.14285714285714285
v14
o2
n0.14285714285714285
v13
o2
n0.14285714285714285
v12
o2
n0.14285714285714285
v11
o2
n0.14285714285714285
v10
o2
n0.14285714285714285
v9
o2
n0.14285714285714285
v8
V20 0 0
v8
V21 0 0
v9
V22 0 0
v10
V23 0 0
v11
V24 0 0
o5
v12
o0
n0.02
o2
n49.98
o1
n0.0196078431372549
o2
o0
n1
o2
n-2
v16
o15
o0
n0.0196078431372549
o13
o1
n0.5
v16
V25 0 0
o5
v13
o0
n0.02
o2
n49.98
o1
n0.0196078431372549
o2
o0
n1
o2
n-2
v17
o15
o0
n0.0196078431372549
o13
o1
n0.5
v17
V26 0 0
o5
v14
o0
n0.02
o2
n49.98
o1
n0.0196078431372549
o2
o0
n1
o2
n-2
v18
o15
o0
n0.0196078431372549
o13
o1
n0.5
v18
V27 0 0
o5
v15
o0
n0.02
o2
n49.98
o1
n0.0196078431372549
o2
o0
n1
o2
n-2
v19
o15
o0
n0.0196078431372549
o13
o1
n0.5
v19
V28 0 0
v20
V29 0 0
v21
V30 0 0
v22
V31 0 0
v23
V32 0 0
o3
o15
o1
v24
n0.35
o15
o0
n0.35
o13
o1
n0.35
v24
V33 0 0
o3
o15
o1
v25
n0.35
o15
o0
n0.35
o13
o1
n0.35
v25
V34 0 0
o3
o15
o1
v26
n0.35
o15
o0
n0.35
o13
o1
n0.35
v26
V35 0 0
o3
o15
o1
v27
n0.35
o15
o0
n0.35
o13
o1
n0.35
v27
V36 0 0
o0
o2
n0.5
v29
o2
n0.5
v28
V37 0 0
o0
o2
n0.5
v31
o2
n0.5
v30
V38 0 0
o54
4
o2
n0.25
v35
o2
n0.25
v34
o2
n0.25
v33
o2
n0.25
v32
V39 0 0
o0
o2
o12
2
n1
v38
o1
v36
n0.5
n0.5
V40 0 0
o0
o2
o12
2
n1
v38
o1
v37
n0.5
n0.5
V41 0 0
v38
V42 0 1
o2
o41
o2
n1.5707963267948966
v39
o41
o2
n1.5707963267948966
v40
O0 0
o0
o2
n2
v42
v41
V43 0 2
o2
o41
o2
n1.5707963267948966
v39
o46
o2
n1.5707963267948966
v40
O1 0
o0
o2
n4
v43
v41
V44 0 3
o46
o2
n1.5707963267948966
v39
O2 0
o0
o2
n6
v44
v41
b
0 0 2
0 0 4
0 0 6
0 0 8
0 0 10
0 0 12
0 0 14
0 0 16
k7
0
0
0
0
0
0
0
G0 8
0 0
1 0
2 0
3 0
4 0
5 0
6 0
7 0
G1 8
0 0
1 0
2 0
3 0
4 0
5 0
6 0
7 0
G2 8
0 0
1 0
2 0
3 0
4 0
5 0
6 0
7 0
